
  15    0


   0   9 2 3 4 9 10 11 12 13 14 
   8   3 7 6 5 
   1   2 8 7 
   7   2 6 5 
   9   1 15
   3   1 15
   9   1 15
   7   1 15
  10   1 15
   7   1 15
   6   1 15
   5   1 15
   9   1 15
   7   1 15
   0   0 
